18,4	0,0	18,6	13,0	0,0	0,0	0,0	0,0	0,0	8,3
16,3	17,4	0,0	8,5	18,8	0,0	0,0	16,4	0,0	0,0
0,0	0,0	16,3	0,0	18,9	11,7	0,0	0,0	14,2	0,0
11,5	0,0	16,6	0,0	0,0	0,0	7,8	0,0	0,0	0,0
0,0	12,0	0,0	5,4	7,4	0,0	0,0	8,7	0,0	0,0
0,0	14,7	5,6	0,0	13,4	12,3	0,0	0,0	17,2	0,0
0,0	9,4	0,0	11,1	0,0	0,0	7,8	0,0	0,0	16,9
10,3	0,0	12,4	0,0	0,0	0,0	0,0	0,0	0,0	10,7
0,0	10,8	0,0	18,6	15,7	0,0	0,0	19,2	0,0	0,0
0,0	0,0	6,6	0,0	0,0	19,1	9,3	0,0	0,0	8,8
									
2,9	3,8	2,7	4,5	3,7	2,7	3,4	4,2	3,7	4,0
